p cnf 20 15
-5 14 -15 19 -10 1 -13 20 -17 -3 0
-9 -14 12 8 18 -7 4 -3 -17 -1 0
-20 12 2 -11 -7 4 -13 -17 19 9 0
10 14 13 11 17 7 -15 -8 -5 9 0
-8 -10 -9 -14 -6 2 17 -12 19 -5 0
7 -18 15 -3 -2 20 -1 -5 -13 9 0
-2 -20 -7 -1 12 13 -17 -15 -9 11 0
-14 -20 6 -9 -3 -12 16 19 10 17 0
1 19 11 -3 -6 10 -15 -12 -14 5 0
-6 7 9 12 -10 -13 5 15 18 -2 0
7 16 -14 13 15 4 -12 9 -19 -17 0
-11 7 3 2 15 19 -9 -16 8 -13 0
-18 -3 2 17 13 -7 -14 6 11 12 0
-19 -13 5 -9 -6 1 -10 7 -15 12 0
-19 -1 2 6 -12 14 15 5 -10 -4 0
